Route #1: 30 36 40 39 2 63 46 60 16 24 41
Route #2: 33 48 34 37 23 20
Route #3: 25 3 62
Route #4: 9 19 51 55 59 31 50
Route #5: 45 28 26 21 7 44 49 14 27 53
Route #6: 29 38 12 22 18
Route #7: 54 5 58 47 8 4
Route #8: 10 42 32 61 13 52 56 6
Route #9: 15 11 43 35 1 17 57
cost 1664.511474609375